c This Formular is generated by mcnf
c
c    horn? no 
c    forced? no 
c    mixed sat? no 
c    clause length = 3 
c
p cnf 20  91 
 5 3 -12 0
-5 -15 -11 0
-12 1 -13 0
20 14 18 0
-9 19 16 0
18 7 -16 0
12 -3 19 0
17 7 -11 0
7 -4 6 0
13 -20 7 0
13 -9 17 0
-2 7 8 0
10 -6 -9 0
-13 1 17 0
7 -18 13 0
18 7 19 0
7 -9 -11 0
-16 -3 -1 0
9 18 -10 0
13 1 3 0
8 3 7 0
%
0

54 83 96 23 84 92 6 98 65 18 89 81 57 41 60 51 7 42 30 89
